experiment/data/hgs-res/Vrp-Set-A-n54/Vrp-Set-A-n54-hgs/0.hgs1.vrp
NAME : 0
COMMENT : CVRP Instance
TYPE : CVRP
DIMENSION : 54
EDGE_WEIGHT_TYPE : EUC_2D
CAPACITY : 100
NODE_COORD_SECTION
1	61.0	5.0
2	85.0	53.0
3	17.0	57.0
4	49.0	93.0
5	69.0	11.0
6	87.0	15.0
7	49.0	39.0
8	87.0	23.0
9	19.0	83.0
10	69.0	87.0
11	69.0	43.0
12	49.0	67.0
13	17.0	61.0
14	45.0	61.0
15	21.0	53.0
16	71.0	37.0
17	53.0	23.0
18	77.0	63.0
19	89.0	7.0
20	21.0	83.0
21	77.0	25.0
22	85.0	95.0
23	43.0	93.0
24	75.0	25.0
25	1.0	43.0
26	7.0	7.0
27	81.0	69.0
28	23.0	57.0
29	81.0	15.0
30	77.0	35.0
31	49.0	3.0
32	21.0	93.0
33	41.0	37.0
34	71.0	91.0
35	31.0	13.0
36	69.0	33.0
37	91.0	47.0
38	13.0	69.0
39	65.0	75.0
40	91.0	27.0
41	9.0	85.0
42	15.0	19.0
43	7.0	37.0
44	61.0	11.0
45	59.0	83.0
46	85.0	69.0
47	15.0	29.0
48	1.0	13.0
49	1.0	83.0
50	85.0	31.0
51	95.0	25.0
52	5.0	33.0
53	51.0	11.0
54	51.0	85.0
DEMAND_SECTION
1	0
2	24
3	9
4	15
5	17
6	2
7	19
8	10
9	17
10	20
11	16
12	8
13	12
14	3
15	23
16	4
17	23
18	20
19	2
20	19
21	2
22	23
23	23
24	5
25	12
26	15
27	9
28	13
29	18
30	16
31	7
32	6
33	2
34	8
35	2
36	2
37	4
38	13
39	18
40	9
41	19
42	3
43	14
44	19
45	21
46	4
47	6
48	22
49	13
50	10
51	18
52	5
53	9
54	36
DEPOT_SECTION
1
-1
EOF
