experiment/data/hgs-res/Vrp-Set-A-n54/Vrp-Set-A-n54-hgs/0.hgs1.tour
Route #1: 43 4 28 7 39 50 5 18
Route #2: 23 29 1 17 10 15 35
Route #3: 20 49 36 45 26 21 33 9 38
Route #4: 44 53 3 22 13
Route #5: 32 37 48 40 31 8 19 11
Route #6: 14 2 12 27 6 16
Route #7: 52 34 41 46 42 24 51 47 25 30
Cost 1171.68
